amountOfEmployees = 50;
horizonLength = 7;
amountOfShifts = 4;

shiftsPerDay = [|8,4,24,0,
|11,9,0,0,
|0,15,18,0,
|9,11,0,0,
|16,3,5,0,
|9,11,0,0,
|15,3,4,0,
|];

preferences = array3d(1..50,1..7,1..4,[1,1,1,1,1,2,2,2,1,2,2,2,4,2,2,2,1,2,2,2,4,2,2,2,1,2,2,2,1,2,2,2,2,3,1,3,2,3,1,3,2,3,2,3,2,3,1,3,2,3,2,3,2,3,1,3,1,4,4,4,2,3,2,3,2,3,2,3,2,3,2,3,2,3,2,3,2,3,2,3,2,3,2,3,1,2,2,2,3,2,3,2,3,2,3,2,2,2,1,2,3,2,3,2,2,2,1,2,3,2,3,2,2,1,1,1,1,2,1,2,1,2,1,2,1,2,1,2,1,2,1,2,1,2,1,2,1,2,1,2,1,2,2,2,2,4,2,4,2,4,2,4,2,4,2,4,2,4,2,4,2,4,2,4,2,4,2,4,2,2,2,2,2,3,2,3,2,3,2,3,1,3,1,3,2,3,2,3,1,3,1,3,2,3,2,3,1,1,1,1,1,2,1,2,1,2,1,2,1,2,3,2,1,2,1,2,1,2,3,2,1,2,1,2,2,1,1,1,3,1,3,1,3,1,3,1,3,1,3,1,3,1,3,1,3,1,3,1,3,1,3,1,3,2,2,2,1,2,1,2,1,2,1,2,3,2,1,2,1,2,1,2,3,2,1,2,1,2,1,2,4,2,2,2,3,2,3,2,3,2,3,2,2,2,2,2,3,2,3,2,2,2,2,2,3,2,3,2,2,1,1,1,2,2,2,2,2,2,2,2,2,2,2,2,2,2,2,2,2,2,2,2,2,2,2,2,4,2,2,2,2,2,2,2,2,2,2,2,1,2,1,2,2,2,2,2,1,2,1,2,2,2,2,2,2,4,4,4,1,1,1,1,1,1,1,1,1,1,1,1,1,1,1,1,1,1,1,1,1,1,1,1,2,1,1,1,2,1,2,1,2,1,2,1,1,1,1,1,2,1,2,1,1,1,1,1,2,1,2,1,4,2,2,2,3,2,3,2,3,2,3,2,1,2,1,2,3,2,3,2,1,2,1,2,3,2,3,2,2,4,4,4,3,4,3,4,3,4,3,4,2,4,2,4,3,4,3,4,2,4,2,4,3,4,3,4,1,3,3,3,2,2,2,2,2,2,2,2,2,2,2,2,2,2,2,2,2,2,2,2,2,2,2,2,4,3,3,3,2,1,2,1,2,1,2,1,4,1,4,1,2,1,2,1,4,1,4,1,2,1,2,1,4,1,1,1,4,4,4,4,4,4,4,4,1,4,4,4,4,4,4,4,1,4,4,4,4,4,4,4,4,1,1,1,4,1,4,1,4,1,4,1,2,1,2,1,4,1,4,1,2,1,2,1,4,1,4,1,4,2,2,2,2,3,2,3,2,3,2,3,4,3,1,3,2,3,2,3,4,3,1,3,2,3,2,3,4,1,1,1,4,3,4,3,4,3,4,3,1,3,3,3,4,3,4,3,1,3,3,3,4,3,4,3,4,4,4,4,3,1,3,1,3,1,3,1,3,1,1,1,3,1,3,1,3,1,1,1,3,1,3,1,4,2,2,2,2,2,2,2,2,2,2,2,1,2,1,2,2,2,2,2,1,2,1,2,2,2,2,2,1,2,2,2,3,4,3,4,3,4,3,4,1,4,4,4,3,4,3,4,1,4,4,4,3,4,3,4,2,2,2,2,3,3,3,3,3,3,3,3,1,3,1,3,3,3,3,3,1,3,1,3,3,3,3,3,1,3,3,3,2,2,2,2,2,2,2,2,2,2,2,2,2,2,2,2,2,2,2,2,2,2,2,2,2,2,2,2,1,1,1,1,1,1,1,1,2,1,2,1,1,1,1,1,2,1,2,1,1,1,1,1,1,1,1,1,2,1,2,1,2,1,2,1,1,1,1,1,2,1,2,1,1,1,1,1,2,1,2,1,4,1,1,1,2,3,2,3,2,3,2,3,3,3,3,3,2,3,2,3,3,3,3,3,2,3,2,3,1,2,2,2,1,2,1,2,1,2,1,2,2,2,2,2,1,2,1,2,2,2,2,2,1,2,1,2,1,4,4,4,2,3,2,3,2,3,2,3,2,3,2,3,2,3,2,3,2,3,2,3,2,3,2,3,4,1,1,1,4,1,4,1,4,1,4,1,2,1,2,1,4,1,4,1,2,1,2,1,4,1,4,1,2,2,2,2,1,1,1,1,1,1,1,1,1,1,1,1,1,1,1,1,1,1,1,1,1,1,1,1,4,2,2,2,4,3,4,3,4,3,4,3,3,3,3,3,4,3,4,3,3,3,3,3,4,3,4,3,2,4,4,4,1,3,1,3,1,3,1,3,3,3,3,3,1,3,1,3,3,3,3,3,1,3,1,3,3,1,1,1,1,1,1,1,1,1,1,1,1,1,1,1,1,1,1,1,1,1,1,1,1,1,1,1,1,4,4,4,4,2,4,2,4,2,4,2,1,2,1,2,4,2,4,2,1,2,1,2,4,2,4,2,1,3,3,3,2,1,2,1,2,1,2,1,3,1,3,1,2,1,2,1,3,1,3,1,2,1,2,1,2,2,2,2,1,2,1,2,1,2,1,2,2,2,2,2,1,2,1,2,2,2,2,2,1,2,1,2,2,4,4,4,4,1,4,1,4,1,4,1,4,1,4,1,4,1,4,1,4,1,4,1,4,1,4,1,1,3,3,3,1,2,1,2,1,2,1,2,3,2,3,2,1,2,1,2,3,2,3,2,1,2,1,2,2,1,1,1,1,1,1,1,1,1,1,1,1,1,1,1,1,1,1,1,1,1,1,1,1,1,1,1,2,1,1,1,1,3,1,3,1,3,1,3,3,3,3,3,1,3,1,3,3,3,3,3,1,3,1,3,3,3,3,3,2,1,2,1,2,1,2,1,4,1,4,1,2,1,2,1,4,1,4,1,2,1,2,1,3,3,3,3,1,3,1,3,1,3,1,3,2,3,2,3,1,3,1,3,2,3,2,3,1,3,1,3,2,3,3,3,2,2,2,2,2,2,2,2,3,2,3,2,2,2,2,2,3,2,3,2,2,2,2,2,4,1,1,1,2,3,2,3,2,3,2,3,4,3,4,3,2,3,2,3,4,3,4,3,2,3,2,3,2,2,2,2,4,3,4,3,4,3,4,3,1,3,1,3,4,3,4,3,1,3,1,3,4,3,4,3,]);

minShifts = 2;
maxShifts = 6;
minConsecShifts = 2;
maxConsecShifts = 4;

minConsecSameShifts = [1,1,2,0];
maxConsecSameShifts = [4,4,4,5];

minPerShifts = [0,0,0,0];
maxPerShifts = [6,6,3,5];